outputs/knapsack128.output
CPLEX 12.9.0.0: optimal integer solution within mipgap or absmipgap; objective 40718
4 MIP simplex iterations
0 branch-and-bound nodes
absmipgap = 2, relmipgap = 4.91183e-05
Select [*] :=
  0 1    13 1    26 1    39 1    52 1    65 1    78 1    91 0   104 1   117 1
  1 1    14 1    27 0    40 1    53 1    66 0    79 1    92 1   105 1   118 0
  2 1    15 1    28 1    41 1    54 0    67 1    80 1    93 0   106 1   119 0
  3 0    16 1    29 1    42 1    55 0    68 1    81 1    94 1   107 1   120 1
  4 1    17 0    30 1    43 1    56 0    69 0    82 1    95 1   108 1   121 0
  5 1    18 1    31 1    44 1    57 1    70 1    83 1    96 0   109 0   122 0
  6 0    19 1    32 1    45 1    58 1    71 1    84 1    97 1   110 1   123 0
  7 1    20 1    33 1    46 0    59 1    72 1    85 0    98 1   111 1   124 0
  8 1    21 1    34 0    47 1    60 1    73 1    86 1    99 0   112 1   125 1
  9 1    22 1    35 1    48 0    61 0    74 1    87 1   100 1   113 1   126 1
 10 1    23 1    36 1    49 0    62 0    75 0    88 1   101 1   114 1   127 0
 11 0    24 0    37 1    50 0    63 1    76 1    89 1   102 0   115 0
 12 0    25 0    38 1    51 0    64 1    77 1    90 1   103 1   116 1
;

